35 2000
10 149
7 168
11 128
4 154
11 130
6 118
9 145
10 128
3 172
3 130
2 165
2 195
5 154
4 165
6 197
2 145
11 130
7 123
7 197
2 172
7 130
10 123
7 174
11 195
10 118
8 124
9 124
6 174
2 106
4 168
8 18
9 154
10 149
2 154
2 106
